objective value:                     1.98798924844155
x(0,3,0)                                            1 	(obj:0)
x(1,4,1)                                            1 	(obj:0)
x(2,10,0)                                           1 	(obj:0)
x(3,8,0)                                            1 	(obj:0)
x(4,2,0)                                            1 	(obj:0)
x(4,9,1)                                            1 	(obj:0)
x(8,4,0)                                            1 	(obj:0)
x(9,11,1)                                           1 	(obj:0)
x(10,0,0)                                           1 	(obj:0)
x(11,1,1)                                           1 	(obj:0)
xc(1,11)                                            1 	(obj:0)
xc(2,6)                                             1 	(obj:0)
xc(3,0)                                             1 	(obj:0)
u(0,1)                               1.98798924844155 	(obj:0)
u(1,0)                               1.98798924844155 	(obj:0)
u(2,0)                               1.68766024862435 	(obj:0)
u(3,0)                             0.0311124735688866 	(obj:0)
u(3,1)                               1.98798924844155 	(obj:0)
u(4,0)                               1.13385266956376 	(obj:0)
u(4,1)                              0.237527502292004 	(obj:0)
u(6,0)                               1.98798924844155 	(obj:0)
u(8,0)                              0.349776129877788 	(obj:0)
u(9,1)                               1.14039893309312 	(obj:0)
u(10,0)                              1.98798924844155 	(obj:0)
u(10,1)                             0.607820878028381 	(obj:0)
u(11,0)                              0.49366856639474 	(obj:0)
u(11,1)                              1.98798924844155 	(obj:0)
u(12,1)                             0.376435459409631 	(obj:0)
u(13,0)                            0.0307977644201998 	(obj:0)
u(13,1)                             0.637164755059901 	(obj:0)
u(14,0)                               0.3754102777764 	(obj:0)
u(14,1)                            0.0988677886308995 	(obj:0)
u(15,0)                             0.412655228633609 	(obj:0)
u(15,1)                               0.1586646438363 	(obj:0)
u(16,0)                            0.0485791923411991 	(obj:0)
u(16,1)                              0.37061056895193 	(obj:0)
u(17,0)                             0.169595157192461 	(obj:0)
u(17,1)                              0.50069055690971 	(obj:0)
u(18,0)                            0.0899412633343601 	(obj:0)
u(18,1)                               0.4435885673998 	(obj:0)
u(19,0)                             0.654894346793679 	(obj:0)
u(19,1)                             0.662568237623534 	(obj:0)
f(0,3,0)                                            1 	(obj:0)
f(0,3,2)                                            1 	(obj:0)
f(0,3,4)                                            1 	(obj:0)
f(1,4,1)                                            1 	(obj:0)
f(2,10,2)                                           1 	(obj:0)
f(2,10,4)                                           1 	(obj:0)
f(3,8,0)                                            1 	(obj:0)
f(3,8,2)                                            1 	(obj:0)
f(3,8,3)                                            1 	(obj:0)
f(3,8,4)                                            1 	(obj:0)
f(4,2,4)                                            1 	(obj:0)
f(4,9,0)                                            1 	(obj:0)
f(4,9,1)                                            1 	(obj:0)
f(4,9,2)                                            1 	(obj:0)
f(4,9,3)                                            1 	(obj:0)
f(4,9,4)                                            1 	(obj:0)
f(8,4,0)                                            1 	(obj:0)
f(8,4,2)                                            1 	(obj:0)
f(8,4,3)                                            1 	(obj:0)
f(8,4,4)                                            1 	(obj:0)
f(10,0,2)                                           1 	(obj:0)
f(10,0,4)                                           1 	(obj:0)
z_r(0,)                              1.98798924844155 	(obj:0)
z_r(1,)                              1.98798924844155 	(obj:0)
z                                    1.98798924844155 	(obj:1)
